Instance name: /mnt/c/Users/ORG/CLionProjects/uMV-FSTSP/Murray_Chu_2015_test_data/FSTSP/FSTSP_10_customer_problems/20140810T123437v6

drone speed: 0.4 miles/minute
uav non-eligible customer: 10 
Printing number of nodes: 11

Gurobi Optimizer version 11.0.0 build v11.0.0rc2 (linux64 - "Ubuntu 22.04.3 LTS")

CPU model: 13th Gen Intel(R) Core(TM) i5-13500, instruction set [SSE2|AVX|AVX2]
Thread count: 10 physical cores, 20 logical processors, using up to 20 threads

Optimize a model with 44485 rows, 1957 columns and 1837894 nonzeros
Model fingerprint: 0xf13b41f4
Variable types: 11 continuous, 1946 integer (1814 binary)
Coefficient statistics:
  Matrix range     [6e-01, 2e+01]
  Objective range  [8e-01, 2e+01]
  Bounds range     [1e+00, 1e+00]
  RHS range        [1e+00, 9e+00]
Found heuristic solution: objective 159.1525321
Presolve removed 25498 rows and 768 columns
Presolve time: 2.86s
Presolved: 18987 rows, 1189 columns, 641371 nonzeros
Variable types: 9 continuous, 1180 integer (1180 binary)
Found heuristic solution: objective 146.0361113
Root relaxation presolved: 18987 rows, 1189 columns, 641371 nonzeros


Root simplex log...

Iteration    Objective       Primal Inf.    Dual Inf.      Time
    4317    3.7826859e+01   1.506429e+01   0.000000e+00      5s
    4391    3.7817928e+01   0.000000e+00   0.000000e+00      5s

Root relaxation: objective 3.781793e+01, 4391 iterations, 2.13 seconds (5.20 work units)

    Nodes    |    Current Node    |     Objective Bounds      |     Work
 Expl Unexpl |  Obj  Depth IntInf | Incumbent    BestBd   Gap | It/Node Time

     0     0   37.81793    0  151  146.03611   37.81793  74.1%     -    5s
H    0     0                     101.6365759   37.81793  62.8%     -    5s
H    0     0                      62.5634980   37.81793  39.6%     -    5s
     0     0   39.39989    0  188   62.56350   39.39989  37.0%     -    6s
H    0     0                      55.9213628   39.52867  29.3%     -    6s
H    0     0                      53.4148608   39.63567  25.8%     -    6s
     0     0   39.63567    0  189   53.41486   39.63567  25.8%     -    6s
     0     0   39.63928    0  191   53.41486   39.63928  25.8%     -    7s
     0     0   40.05024    0  190   53.41486   40.05024  25.0%     -    7s
     0     0   40.21096    0  222   53.41486   40.21096  24.7%     -    8s
     0     0   40.26677    0  240   53.41486   40.26677  24.6%     -    8s
     0     0   40.26969    0  244   53.41486   40.26969  24.6%     -    8s
     0     0   40.45546    0  231   53.41486   40.45546  24.3%     -    9s
     0     0   40.45554    0  225   53.41486   40.45554  24.3%     -    9s
H    0     0                      52.5990032   40.48541  23.0%     -    9s
     0     0   40.48541    0  226   52.59900   40.48541  23.0%     -   10s
     0     0   40.48633    0  222   52.59900   40.48633  23.0%     -   10s
     0     0   40.48657    0  219   52.59900   40.48657  23.0%     -   10s
H    0     0                      49.5240192   40.59496  18.0%     -   10s
     0     0   40.59496    0  226   49.52402   40.59496  18.0%     -   10s
     0     0   40.64311    0  253   49.52402   40.64311  17.9%     -   10s
     0     0   40.64311    0  245   49.52402   40.64311  17.9%     -   11s
     0     0   40.64311    0  249   49.52402   40.64311  17.9%     -   11s
     0     0   40.64311    0  252   49.52402   40.64311  17.9%     -   11s
     0     0   40.64311    0  255   49.52402   40.64311  17.9%     -   12s
     0     0   40.71240    0  255   49.52402   40.71240  17.8%     -   13s
     0     2   40.71240    0  255   49.52402   40.71240  17.8%     -   15s
    25    26   42.53238    5  116   49.52402   42.04864  15.1%   363   20s
    66    44   43.26911    8  104   49.52402   42.04864  15.1%   256   25s
   122    77   44.33543   10   79   49.52402   42.04864  15.1%   196   30s
H  127    77                      47.6013208   42.04864  11.7%   191   30s
   212    72   45.86326   17   93   47.60132   42.04864  11.7%   148   36s
   318    58   45.88369    6  163   47.60132   43.37716  8.87%   128   40s

Cutting planes:
  Gomory: 5
  Cover: 24
  Clique: 1
  MIR: 14
  Zero half: 15
  RLT: 125

Explored 479 nodes (57080 simplex iterations) in 44.16 seconds (68.48 work units)
Thread count was 20 (of 20 available processors)

Solution count 9: 47.6013 49.524 52.599 ... 159.153

Optimal solution found (tolerance 1.00e-04)
Best objective 4.760132078262e+01, best bound 4.760132078262e+01, gap 0.0000%
Truck arcs: 
0 1 7.81487
1 3 3.93636
1 7 7.04774
3 1 3.93636
4 10 8.38296
5 6 0.955922
6 8 5.60229
7 5 0.777831
8 4 1.94864
10 11 4.19835
Theta:
Theta_2 = 1
Theta_9 = 1
Drone arcs:
0 9
2 11
4 2
9 6
Gamma:
gamma_2_4_10= 1
gamma_2_10_11= 1
gamma_9_0_1= 1
gamma_9_1_7= 1
gamma_9_5_6= 1
gamma_9_7_5= 1
Sigma:
Sigma_1 = 0
Sigma_2 = 0
Sigma_3 = 0
Sigma_4 = -0
Sigma_5 = 0
Sigma_6 = 0
Sigma_7 = 0
Sigma_8 = 0
Sigma_9 = 0
Sigma_10 = 0
Sigma_11 = 0
middle of 2 sortie are: 10 
middle of 9 sortie are: 1 5 7 
Objective: 47.6013
Number of sorties: 2
